60
1 0 47
2 0 47
2 1 1
3 0 39
3 1 37
3 2 18
4 0 38
4 1 48
4 2 10
4 3 3
5 0 38
5 1 26
5 2 15
5 3 49
5 4 42
6 0 36
6 1 39
6 2 16
6 3 23
6 4 49
6 5 21
7 0 22
7 1 13
7 2 12
7 3 37
7 4 43
7 5 13
7 6 32
8 0 32
8 1 34
8 2 38
8 3 10
8 4 2
8 5 22
8 6 36
8 7 26
9 0 43
9 1 16
9 2 32
9 3 28
9 4 27
9 5 44
9 6 32
9 7 46
9 8 14
10 0 13
10 1 31
10 2 23
10 3 28
10 4 14
10 5 30
10 6 44
10 7 24
10 8 29
10 9 25
11 0 45
11 1 7
11 2 12
11 3 16
11 4 43
11 5 6
11 6 14
11 7 47
11 8 5
11 9 37
11 10 45
12 0 27
12 1 16
12 2 29
12 3 27
12 4 50
12 5 41
12 6 27
12 7 47
12 8 43
12 9 20
12 10 19
12 11 44
13 0 43
13 1 7
13 2 26
13 3 21
13 4 47
13 5 26
13 6 27
13 7 26
13 8 14
13 9 20
13 10 38
13 11 26
13 12 40
14 0 6
14 1 28
14 2 45
14 3 11
14 4 25
14 5 36
14 6 12
14 7 23
14 8 18
14 9 26
14 10 18
14 11 10
14 12 18
14 13 37
15 0 43
15 1 31
15 2 40
15 3 34
15 4 44
15 5 45
15 6 40
15 7 25
15 8 25
15 9 38
15 10 8
15 11 11
15 12 9
15 13 17
15 14 27
16 0 29
16 1 15
16 2 7
16 3 5
16 4 31
16 5 29
16 6 24
16 7 26
16 8 7
16 9 40
16 10 19
16 11 48
16 12 48
16 13 23
16 14 13
16 15 29
17 0 37
17 1 47
17 2 46
17 3 31
17 4 48
17 5 24
17 6 3
17 7 12
17 8 2
17 9 8
17 10 46
17 11 12
17 12 50
17 13 13
17 14 43
17 15 43
17 16 43
18 0 13
18 1 10
18 2 7
18 3 41
18 4 44
18 5 20
18 6 8
18 7 1
18 8 12
18 9 24
18 10 33
18 11 9
18 12 41
18 13 14
18 14 34
18 15 29
18 16 47
18 17 42
19 0 2
19 1 9
19 2 44
19 3 10
19 4 49
19 5 40
19 6 39
19 7 16
19 8 15
19 9 32
19 10 14
19 11 39
19 12 34
19 13 30
19 14 1
19 15 35
19 16 8
19 17 7
19 18 44
20 0 40
20 1 50
20 2 36
20 3 19
20 4 35
20 5 49
20 6 49
20 7 34
20 8 48
20 9 26
20 10 10
20 11 6
20 12 5
20 13 36
20 14 42
20 15 10
20 16 49
20 17 12
20 18 42
20 19 20
21 0 11
21 1 44
21 2 26
21 3 16
21 4 15
21 5 42
21 6 40
21 7 7
21 8 33
21 9 29
21 10 12
21 11 49
21 12 4
21 13 13
21 14 10
21 15 10
21 16 4
21 17 22
21 18 48
21 19 14
21 20 42
22 0 24
22 1 44
22 2 2
22 3 17
22 4 38
22 5 21
22 6 20
22 7 18
22 8 37
22 9 10
22 10 31
22 11 39
22 12 22
22 13 6
22 14 5
22 15 11
22 16 40
22 17 2
22 18 47
22 19 36
22 20 8
22 21 49
23 0 47
23 1 31
23 2 34
23 3 28
23 4 34
23 5 7
23 6 19
23 7 2
23 8 46
23 9 42
23 10 23
23 11 25
23 12 25
23 13 29
23 14 29
23 15 38
23 16 8
23 17 49
23 18 32
23 19 8
23 20 27
23 21 17
23 22 10
24 0 18
24 1 37
24 2 19
24 3 18
24 4 35
24 5 23
24 6 33
24 7 48
24 8 40
24 9 30
24 10 7
24 11 17
24 12 20
24 13 36
24 14 21
24 15 48
24 16 40
24 17 43
24 18 28
24 19 37
24 20 7
24 21 24
24 22 34
24 23 44
25 0 25
25 1 43
25 2 28
25 3 23
25 4 35
25 5 30
25 6 44
25 7 7
25 8 4
25 9 38
25 10 2
25 11 35
25 12 28
25 13 16
25 14 35
25 15 14
25 16 6
25 17 50
25 18 10
25 19 35
25 20 12
25 21 4
25 22 35
25 23 47
25 24 45
26 0 5
26 1 38
26 2 42
26 3 16
26 4 2
26 5 31
26 6 24
26 7 21
26 8 17
26 9 15
26 10 1
26 11 48
26 12 29
26 13 21
26 14 45
26 15 18
26 16 48
26 17 17
26 18 10
26 19 2
26 20 34
26 21 49
26 22 22
26 23 36
26 24 7
26 25 27
27 0 18
27 1 44
27 2 12
27 3 29
27 4 36
27 5 25
27 6 20
27 7 40
27 8 25
27 9 25
27 10 7
27 11 1
27 12 12
27 13 48
27 14 47
27 15 16
27 16 13
27 17 28
27 18 20
27 19 22
27 20 28
27 21 2
27 22 14
27 23 30
27 24 22
27 25 37
27 26 6
28 0 47
28 1 42
28 2 11
28 3 45
28 4 24
28 5 4
28 6 43
28 7 16
28 8 40
28 9 8
28 10 30
28 11 9
28 12 45
28 13 28
28 14 23
28 15 33
28 16 24
28 17 1
28 18 23
28 19 19
28 20 1
28 21 11
28 22 1
28 23 6
28 24 13
28 25 34
28 26 48
28 27 40
29 0 44
29 1 50
29 2 36
29 3 27
29 4 34
29 5 37
29 6 21
29 7 50
29 8 17
29 9 33
29 10 42
29 11 1
29 12 30
29 13 24
29 14 30
29 15 19
29 16 34
29 17 43
29 18 36
29 19 13
29 20 50
29 21 26
29 22 38
29 23 32
29 24 26
29 25 44
29 26 13
29 27 39
29 28 23
30 0 11
30 1 28
30 2 28
30 3 12
30 4 22
30 5 1
30 6 2
30 7 24
30 8 14
30 9 34
30 10 45
30 11 45
30 12 41
30 13 1
30 14 23
30 15 13
30 16 13
30 17 26
30 18 19
30 19 28
30 20 7
30 21 45
30 22 13
30 23 22
30 24 12
30 25 23
30 26 41
30 27 2
30 28 9
30 29 42
31 0 17
31 1 16
31 2 14
31 3 7
31 4 26
31 5 11
31 6 9
31 7 49
31 8 46
31 9 5
31 10 13
31 11 23
31 12 33
31 13 36
31 14 4
31 15 26
31 16 8
31 17 19
31 18 10
31 19 27
31 20 45
31 21 4
31 22 48
31 23 9
31 24 29
31 25 41
31 26 14
31 27 18
31 28 7
31 29 18
31 30 39
32 0 27
32 1 28
32 2 8
32 3 11
32 4 15
32 5 21
32 6 13
32 7 19
32 8 36
32 9 23
32 10 11
32 11 7
32 12 28
32 13 43
32 14 29
32 15 39
32 16 40
32 17 44
32 18 18
32 19 10
32 20 17
32 21 48
32 22 18
32 23 30
32 24 34
32 25 33
32 26 42
32 27 22
32 28 45
32 29 42
32 30 7
32 31 4
33 0 33
33 1 49
33 2 38
33 3 19
33 4 21
33 5 37
33 6 1
33 7 46
33 8 24
33 9 47
33 10 43
33 11 47
33 12 32
33 13 27
33 14 47
33 15 42
33 16 6
33 17 29
33 18 37
33 19 6
33 20 27
33 21 36
33 22 27
33 23 50
33 24 44
33 25 17
33 26 10
33 27 47
33 28 29
33 29 49
33 30 21
33 31 4
33 32 22
34 0 34
34 1 42
34 2 6
34 3 47
34 4 27
34 5 46
34 6 13
34 7 3
34 8 23
34 9 39
34 10 5
34 11 29
34 12 6
34 13 11
34 14 39
34 15 42
34 16 14
34 17 36
34 18 37
34 19 4
34 20 21
34 21 5
34 22 29
34 23 1
34 24 35
34 25 3
34 26 20
34 27 13
34 28 24
34 29 47
34 30 13
34 31 25
34 32 18
34 33 18
35 0 32
35 1 46
35 2 23
35 3 21
35 4 14
35 5 12
35 6 46
35 7 43
35 8 20
35 9 46
35 10 9
35 11 17
35 12 30
35 13 44
35 14 2
35 15 22
35 16 34
35 17 31
35 18 12
35 19 18
35 20 12
35 21 25
35 22 7
35 23 21
35 24 37
35 25 37
35 26 47
35 27 31
35 28 28
35 29 10
35 30 6
35 31 50
35 32 48
35 33 14
35 34 26
36 0 25
36 1 17
36 2 6
36 3 42
36 4 29
36 5 45
36 6 11
36 7 27
36 8 4
36 9 30
36 10 10
36 11 38
36 12 22
36 13 15
36 14 1
36 15 16
36 16 40
36 17 10
36 18 14
36 19 6
36 20 26
36 21 8
36 22 48
36 23 27
36 24 46
36 25 10
36 26 6
36 27 21
36 28 28
36 29 38
36 30 17
36 31 6
36 32 1
36 33 3
36 34 32
36 35 19
37 0 17
37 1 42
37 2 25
37 3 3
37 4 21
37 5 21
37 6 3
37 7 8
37 8 5
37 9 29
37 10 33
37 11 26
37 12 26
37 13 48
37 14 15
37 15 7
37 16 13
37 17 43
37 18 29
37 19 1
37 20 12
37 21 34
37 22 18
37 23 49
37 24 16
37 25 15
37 26 8
37 27 43
37 28 10
37 29 12
37 30 43
37 31 7
37 32 44
37 33 24
37 34 31
37 35 27
37 36 3
38 0 43
38 1 26
38 2 33
38 3 50
38 4 4
38 5 43
38 6 21
38 7 34
38 8 9
38 9 45
38 10 32
38 11 32
38 12 9
38 13 16
38 14 27
38 15 19
38 16 30
38 17 3
38 18 33
38 19 25
38 20 18
38 21 47
38 22 27
38 23 46
38 24 43
38 25 24
38 26 5
38 27 37
38 28 4
38 29 35
38 30 35
38 31 36
38 32 42
38 33 43
38 34 17
38 35 15
38 36 38
38 37 16
39 0 11
39 1 40
39 2 27
39 3 9
39 4 45
39 5 4
39 6 15
39 7 16
39 8 28
39 9 45
39 10 31
39 11 34
39 12 21
39 13 31
39 14 7
39 15 23
39 16 48
39 17 11
39 18 44
39 19 7
39 20 27
39 21 32
39 22 40
39 23 29
39 24 50
39 25 32
39 26 10
39 27 46
39 28 37
39 29 13
39 30 1
39 31 25
39 32 31
39 33 13
39 34 37
39 35 24
39 36 47
39 37 46
39 38 14
40 0 31
40 1 41
40 2 25
40 3 17
40 4 29
40 5 8
40 6 46
40 7 7
40 8 25
40 9 45
40 10 34
40 11 7
40 12 46
40 13 49
40 14 43
40 15 28
40 16 6
40 17 32
40 18 45
40 19 39
40 20 28
40 21 43
40 22 26
40 23 21
40 24 4
40 25 36
40 26 33
40 27 18
40 28 34
40 29 22
40 30 38
40 31 46
40 32 28
40 33 8
40 34 26
40 35 10
40 36 10
40 37 35
40 38 42
40 39 2
41 0 10
41 1 3
41 2 38
41 3 20
41 4 33
41 5 50
41 6 34
41 7 50
41 8 33
41 9 19
41 10 45
41 11 7
41 12 1
41 13 1
41 14 28
41 15 39
41 16 13
41 17 48
41 18 11
41 19 37
41 20 37
41 21 32
41 22 44
41 23 33
41 24 5
41 25 24
41 26 14
41 27 21
41 28 35
41 29 30
41 30 15
41 31 34
41 32 22
41 33 42
41 34 16
41 35 6
41 36 24
41 37 10
41 38 37
41 39 16
41 40 23
42 0 24
42 1 36
42 2 31
42 3 20
42 4 41
42 5 6
42 6 47
42 7 13
42 8 49
42 9 12
42 10 45
42 11 49
42 12 12
42 13 35
42 14 23
42 15 19
42 16 32
42 17 23
42 18 45
42 19 10
42 20 7
42 21 8
42 22 48
42 23 19
42 24 18
42 25 47
42 26 18
42 27 2
42 28 6
42 29 27
42 30 15
42 31 3
42 32 31
42 33 27
42 34 6
42 35 48
42 36 46
42 37 29
42 38 38
42 39 35
42 40 30
42 41 24
43 0 24
43 1 28
43 2 17
43 3 4
43 4 41
43 5 47
43 6 18
43 7 30
43 8 4
43 9 12
43 10 11
43 11 35
43 12 33
43 13 35
43 14 17
43 15 19
43 16 40
43 17 5
43 18 6
43 19 38
43 20 3
43 21 34
43 22 40
43 23 2
43 24 6
43 25 32
43 26 6
43 27 20
43 28 50
43 29 50
43 30 33
43 31 25
43 32 32
43 33 43
43 34 13
43 35 42
43 36 27
43 37 15
43 38 7
43 39 19
43 40 46
43 41 11
43 42 9
44 0 44
44 1 21
44 2 7
44 3 47
44 4 45
44 5 27
44 6 39
44 7 13
44 8 32
44 9 3
44 10 34
44 11 10
44 12 41
44 13 26
44 14 18
44 15 6
44 16 24
44 17 8
44 18 38
44 19 45
44 20 8
44 21 46
44 22 45
44 23 29
44 24 4
44 25 35
44 26 12
44 27 6
44 28 7
44 29 36
44 30 36
44 31 42
44 32 44
44 33 33
44 34 40
44 35 39
44 36 40
44 37 2
44 38 3
44 39 15
44 40 25
44 41 50
44 42 46
44 43 10
45 0 40
45 1 27
45 2 26
45 3 27
45 4 29
45 5 24
45 6 11
45 7 49
45 8 1
45 9 8
45 10 37
45 11 46
45 12 33
45 13 29
45 14 15
45 15 3
45 16 13
45 17 5
45 18 2
45 19 15
45 20 23
45 21 20
45 22 32
45 23 38
45 24 36
45 25 1
45 26 10
45 27 24
45 28 4
45 29 37
45 30 7
45 31 6
45 32 32
45 33 33
45 34 18
45 35 36
45 36 38
45 37 41
45 38 31
45 39 16
45 40 34
45 41 24
45 42 45
45 43 45
45 44 27
46 0 27
46 1 4
46 2 8
46 3 25
46 4 45
46 5 22
46 6 45
46 7 14
46 8 15
46 9 42
46 10 50
46 11 3
46 12 22
46 13 4
46 14 27
46 15 45
46 16 4
46 17 24
46 18 15
46 19 4
46 20 25
46 21 17
46 22 34
46 23 38
46 24 26
46 25 34
46 26 46
46 27 10
46 28 4
46 29 35
46 30 3
46 31 10
46 32 47
46 33 37
46 34 3
46 35 24
46 36 50
46 37 36
46 38 5
46 39 25
46 40 20
46 41 8
46 42 35
46 43 23
46 44 13
46 45 30
47 0 26
47 1 40
47 2 45
47 3 36
47 4 44
47 5 22
47 6 38
47 7 30
47 8 3
47 9 20
47 10 19
47 11 44
47 12 23
47 13 29
47 14 10
47 15 39
47 16 37
47 17 4
47 18 50
47 19 21
47 20 33
47 21 3
47 22 17
47 23 23
47 24 19
47 25 49
47 26 8
47 27 22
47 28 7
47 29 5
47 30 22
47 31 8
47 32 40
47 33 9
47 34 40
47 35 44
47 36 38
47 37 50
47 38 4
47 39 18
47 40 48
47 41 49
47 42 25
47 43 49
47 44 1
47 45 5
47 46 2
48 0 20
48 1 50
48 2 50
48 3 40
48 4 25
48 5 4
48 6 38
48 7 40
48 8 28
48 9 11
48 10 41
48 11 17
48 12 49
48 13 25
48 14 9
48 15 45
48 16 3
48 17 43
48 18 27
48 19 12
48 20 21
48 21 26
48 22 17
48 23 49
48 24 12
48 25 44
48 26 36
48 27 11
48 28 18
48 29 5
48 30 35
48 31 31
48 32 47
48 33 26
48 34 23
48 35 4
48 36 10
48 37 28
48 38 5
48 39 1
48 40 28
48 41 44
48 42 36
48 43 43
48 44 43
48 45 40
48 46 15
48 47 15
49 0 39
49 1 14
49 2 40
49 3 14
49 4 41
49 5 13
49 6 41
49 7 38
49 8 42
49 9 32
49 10 8
49 11 1
49 12 25
49 13 24
49 14 25
49 15 38
49 16 9
49 17 26
49 18 8
49 19 11
49 20 43
49 21 17
49 22 6
49 23 20
49 24 6
49 25 22
49 26 18
49 27 36
49 28 24
49 29 40
49 30 43
49 31 1
49 32 30
49 33 33
49 34 40
49 35 28
49 36 45
49 37 30
49 38 49
49 39 20
49 40 47
49 41 12
49 42 26
49 43 22
49 44 13
49 45 8
49 46 4
49 47 45
49 48 43
50 0 32
50 1 18
50 2 7
50 3 17
50 4 29
50 5 35
50 6 49
50 7 16
50 8 28
50 9 44
50 10 47
50 11 43
50 12 48
50 13 27
50 14 2
50 15 38
50 16 21
50 17 28
50 18 12
50 19 12
50 20 24
50 21 46
50 22 24
50 23 3
50 24 40
50 25 8
50 26 47
50 27 22
50 28 9
50 29 48
50 30 1
50 31 48
50 32 43
50 33 15
50 34 7
50 35 27
50 36 15
50 37 50
50 38 17
50 39 10
50 40 28
50 41 11
50 42 22
50 43 6
50 44 10
50 45 27
50 46 44
50 47 5
50 48 40
50 49 43
51 0 40
51 1 28
51 2 9
51 3 33
51 4 3
51 5 42
51 6 25
51 7 49
51 8 44
51 9 4
51 10 34
51 11 50
51 12 33
51 13 10
51 14 21
51 15 28
51 16 45
51 17 32
51 18 10
51 19 42
51 20 26
51 21 3
51 22 9
51 23 28
51 24 48
51 25 41
51 26 49
51 27 8
51 28 24
51 29 14
51 30 39
51 31 25
51 32 2
51 33 9
51 34 7
51 35 35
51 36 30
51 37 17
51 38 19
51 39 38
51 40 18
51 41 43
51 42 31
51 43 36
51 44 32
51 45 17
51 46 36
51 47 29
51 48 15
51 49 35
51 50 35
52 0 7
52 1 45
52 2 45
52 3 27
52 4 34
52 5 48
52 6 21
52 7 5
52 8 7
52 9 5
52 10 16
52 11 45
52 12 41
52 13 48
52 14 21
52 15 45
52 16 13
52 17 44
52 18 30
52 19 20
52 20 34
52 21 7
52 22 30
52 23 43
52 24 45
52 25 7
52 26 35
52 27 9
52 28 45
52 29 22
52 30 44
52 31 35
52 32 15
52 33 6
52 34 42
52 35 3
52 36 23
52 37 25
52 38 33
52 39 32
52 40 1
52 41 14
52 42 47
52 43 10
52 44 49
52 45 32
52 46 48
52 47 49
52 48 37
52 49 44
52 50 47
52 51 8
53 0 30
53 1 30
53 2 30
53 3 47
53 4 38
53 5 24
53 6 25
53 7 12
53 8 36
53 9 20
53 10 49
53 11 29
53 12 32
53 13 49
53 14 26
53 15 17
53 16 9
53 17 10
53 18 48
53 19 43
53 20 31
53 21 31
53 22 47
53 23 11
53 24 26
53 25 10
53 26 13
53 27 41
53 28 10
53 29 36
53 30 20
53 31 48
53 32 31
53 33 27
53 34 50
53 35 3
53 36 26
53 37 6
53 38 14
53 39 8
53 40 10
53 41 12
53 42 38
53 43 4
53 44 37
53 45 18
53 46 25
53 47 5
53 48 49
53 49 4
53 50 43
53 51 5
53 52 19
54 0 43
54 1 34
54 2 36
54 3 32
54 4 32
54 5 2
54 6 36
54 7 34
54 8 27
54 9 8
54 10 34
54 11 15
54 12 11
54 13 15
54 14 47
54 15 38
54 16 24
54 17 15
54 18 1
54 19 46
54 20 46
54 21 21
54 22 11
54 23 47
54 24 7
54 25 32
54 26 3
54 27 14
54 28 27
54 29 20
54 30 36
54 31 43
54 32 32
54 33 22
54 34 39
54 35 32
54 36 40
54 37 27
54 38 31
54 39 30
54 40 20
54 41 45
54 42 30
54 43 11
54 44 7
54 45 34
54 46 39
54 47 40
54 48 45
54 49 47
54 50 29
54 51 16
54 52 6
54 53 47
55 0 8
55 1 34
55 2 4
55 3 30
55 4 41
55 5 7
55 6 12
55 7 25
55 8 47
55 9 2
55 10 25
55 11 42
55 12 28
55 13 18
55 14 11
55 15 4
55 16 8
55 17 13
55 18 10
55 19 15
55 20 20
55 21 15
55 22 2
55 23 23
55 24 3
55 25 7
55 26 29
55 27 9
55 28 8
55 29 50
55 30 13
55 31 26
55 32 9
55 33 44
55 34 35
55 35 5
55 36 42
55 37 37
55 38 47
55 39 21
55 40 40
55 41 38
55 42 34
55 43 12
55 44 15
55 45 30
55 46 5
55 47 19
55 48 23
55 49 6
55 50 30
55 51 15
55 52 1
55 53 15
55 54 38
56 0 22
56 1 31
56 2 44
56 3 19
56 4 43
56 5 31
56 6 11
56 7 13
56 8 50
56 9 25
56 10 22
56 11 13
56 12 24
56 13 15
56 14 35
56 15 24
56 16 9
56 17 4
56 18 11
56 19 10
56 20 7
56 21 8
56 22 20
56 23 8
56 24 48
56 25 4
56 26 16
56 27 46
56 28 33
56 29 29
56 30 3
56 31 6
56 32 19
56 33 19
56 34 3
56 35 42
56 36 13
56 37 9
56 38 12
56 39 31
56 40 11
56 41 14
56 42 29
56 43 29
56 44 49
56 45 48
56 46 25
56 47 36
56 48 43
56 49 7
56 50 10
56 51 28
56 52 31
56 53 10
56 54 31
56 55 30
57 0 31
57 1 49
57 2 50
57 3 50
57 4 14
57 5 14
57 6 5
57 7 45
57 8 18
57 9 20
57 10 7
57 11 49
57 12 16
57 13 20
57 14 40
57 15 10
57 16 25
57 17 23
57 18 12
57 19 2
57 20 12
57 21 9
57 22 49
57 23 17
57 24 5
57 25 45
57 26 32
57 27 42
57 28 35
57 29 9
57 30 11
57 31 47
57 32 37
57 33 16
57 34 40
57 35 10
57 36 29
57 37 15
57 38 43
57 39 36
57 40 10
57 41 32
57 42 19
57 43 15
57 44 12
57 45 2
57 46 24
57 47 8
57 48 46
57 49 32
57 50 26
57 51 20
57 52 31
57 53 37
57 54 31
57 55 41
57 56 26
58 0 33
58 1 48
58 2 21
58 3 38
58 4 30
58 5 36
58 6 46
58 7 39
58 8 21
58 9 7
58 10 9
58 11 50
58 12 37
58 13 13
58 14 44
58 15 42
58 16 1
58 17 10
58 18 33
58 19 36
58 20 50
58 21 5
58 22 44
58 23 44
58 24 6
58 25 5
58 26 39
58 27 35
58 28 37
58 29 2
58 30 15
58 31 2
58 32 6
58 33 25
58 34 2
58 35 48
58 36 24
58 37 30
58 38 27
58 39 32
58 40 34
58 41 37
58 42 46
58 43 17
58 44 25
58 45 48
58 46 19
58 47 40
58 48 11
58 49 34
58 50 7
58 51 24
58 52 10
58 53 6
58 54 41
58 55 21
58 56 31
58 57 29
59 0 24
59 1 31
59 2 29
59 3 17
59 4 28
59 5 18
59 6 10
59 7 44
59 8 32
59 9 34
59 10 17
59 11 35
59 12 39
59 13 4
59 14 24
59 15 49
59 16 30
59 17 9
59 18 7
59 19 43
59 20 36
59 21 29
59 22 30
59 23 44
59 24 49
59 25 31
59 26 24
59 27 5
59 28 27
59 29 31
59 30 19
59 31 47
59 32 49
59 33 25
59 34 40
59 35 28
59 36 42
59 37 16
59 38 46
59 39 23
59 40 14
59 41 40
59 42 6
59 43 30
59 44 32
59 45 6
59 46 2
59 47 14
59 48 23
59 49 14
59 50 45
59 51 23
59 52 44
59 53 49
59 54 6
59 55 14
59 56 25
59 57 50
59 58 28
